NAME : kroD100-R-5-0-a.49100.tour
COMMENT : Length = 49100
COMMENT : Found by LKH-3 [Keld Helsgaun] Tue Jul 30 13:14:56 2024
TYPE : TOUR
DIMENSION : 100
TOUR_SECTION
1
27
13
79
73
71
44
53
51
21
86
78
31
61
74
7
36
42
70
17
97
49
11
50
66
23
67
75
57
76
63
91
62
3
6
85
18
82
56
95
87
55
48
30
35
37
4
43
77
64
33
99
72
80
46
81
29
22
98
94
32
38
34
84
54
16
96
65
14
20
40
83
93
60
19
100
2
92
10
28
12
47
25
9
26
5
59
68
45
69
15
39
41
88
24
52
8
58
89
90
-1
EOF
